NAME : P131112.97624.tour
COMMENT : Length = 97624
COMMENT : Found by LKH-3 [Keld Helsgaun] Tue Dec 17 14:07:42 2024
TYPE : TOUR
DIMENSION : 170
TOUR_SECTION
1
52
132
101
161
2
162
3
163
4
164
5
30
165
6
118
44
166
7
110
167
8
47
54
156
112
98
77
149
73
32
122
68
148
129
80
61
23
39
126
113
130
109
74
11
134
19
26
123
33
64
138
154
12
145
139
46
95
78
104
45
48
76
146
97
133
62
144
99
107
16
86
151
160
105
53
71
114
43
111
81
119
102
92
96
137
37
41
116
57
21
25
79
56
55
58
84
100
117
142
124
14
60
27
115
24
93
63
150
29
15
34
35
135
50
87
59
136
51
140
143
131
18
67
88
17
94
125
28
69
82
83
158
153
20
49
31
90
106
147
36
72
65
141
157
155
22
128
70
85
120
108
127
13
42
152
38
103
40
89
121
66
75
168
9
159
91
169
10
170
-1
EOF
